NAME : random_12
COMMENT : 43 random nodes
TYPE : TSP
DIMENSION : 43
EDGE_WEIGHT_TYPE : EUC_2D
NODE_COORD_SECTION
1 3143 5666
2 -3972 -2343
3 6379 4393
4 3918 -1524
5 1779 2158
6 -3968 -3258
7 -3346 5016
8 3010 2313
9 -2963 -4355
10 -2184 5072
11 27 -3102
12 7122 -5371
13 3621 7018
14 6507 -4864
15 348 4250
16 -2542 -3304
17 1079 -5594
18 -2670 259
19 672 -2607
20 -4716 4544
21 -3396 2804
22 -3209 6150
23 3414 4370
24 -2597 2775
25 -679 -5562
26 -5435 455
27 2420 -3223
28 5841 -5646
29 2023 3347
30 -5552 776
31 4948 5291
32 183 2376
33 1321 1564
34 -2221 -801
35 5033 6807
36 -2916 2852
37 3003 3928
38 4963 -2621
39 -4986 5426
40 514 -4682
41 2982 -4168
42 2421 -2409
43 -3438 1675
EOF